# Objective value = 15
WA1n 0
WA1p 0
WA2n 1
WA2p 0
WB1n 1
WB1p 0
WC1n 0
WC1p 1
WD1n 1
WD1p 0
WD2n 1
WD2p 0
WE1n 2
WE1p 0
WF1n 2
WF1p 0
WG1n 2
WG1p 0
WT1n 0
WT1p 0
WT2n 1
WT2p 0
5 7
a 0
b 0
c 0
d 1
e 0
f 0
g 0
h 0
i 0
j 0
k 0
